2979146
186,171,228,227,149,212,167,104,230,160,70,134,154,225,110,191,195,132,126,130,51,65,49,23,210,36,91,40,35,107,108,87,78,220,2,174,218,47,11,45,200,20,179,96,201,5,73,113,226,173,219,24,66,146,6,168,46,44,147,214,123,69,120,165,67,193,156,15,209,22,34,198,117,125,223,164,64,182,79,197,83,39,135,163,43,127,31,72,74,3,71,118,176,211,57,52,141,18,100,92,54,216,202,105,121,48,204,162,229,133,112,155,151,7,114,183,1,30,184,206,8,136,93,199,55,140,59,139,180,77,128,190,53,175,56,99,41,42,17,9,32,157,63,208,152,12,103,137,203,169,28,50,178,144,215,138,97,29,111,19,224,187,85,14,10,185,217,4,129,33,177,221,222,106,76,158,80,58,148,119,115,194,98,84,122,68,181,145,213,172,86,143,161,101,207,26,102,81,27,116,192,75,89,205,95,13,189,16,37,62,196,166,94,159,188,124,60,61,25,131,82,38,21,109,153,88,170,142,90,150